sets/C/cp-n12-k3.vrp
NAME : (null)
COMMENT : (null)
TYPE : CVRP
DIMENSION : 12
EDGE_WEIGHT_TYPE : EUC_2D
CAPACITY : 58
NODE_COORD_SECTION
 1   0   1
 2   5   8
 3   1   8
 4  11   7
 5   2   8
 6   2   2
 7   8   5
 8   6   7
 9   7   3
10   6  10
11   4   0
12   6   1
DEMAND_SECTION
 1   0
 2   8
 3  10
 4  11
 5  23
 6   4
 7   1
 8  22
 9  23
10  16
11  13
12   8
DEPOT_SECTION
 1
-1
EOF