sets/C/cp-n12-k3.opt
Route #1: 8 6 3 7
Route #2: 2 4 9 1
Route #3: 5 11 10
cost 61
